row=11;
column=11;
Board=[|0,1,1,1,1,1,0,1,0,0,0|1,1,1,0,1,1,1,1,1,1,0|0,0,1,0,0,0,0,0,0,0,0|0,0,0,0,0,1,0,0,0,1,0|0,0,0,0,0,0,0,0,0,0,0|0,1,0,0,0,0,0,0,0,0,0|0,0,0,0,0,1,0,0,0,0,0|0,0,0,0,0,0,0,0,0,1,0|1,0,0,0,1,0,0,0,0,0,0|0,0,1,0,0,0,0,0,0,0,0|0,0,0,0,0,0,0,0,0,0,0|];
right = [2,1,4,1,3,1,3,3,3,2,1];
bottom = [4,0,2,3,2,1,4,0,4,0,4];
